cost: 758.90
Route 1:           0   28   12   33   16   36   42   29   45   15   46   27    0
Route 2:           0   37   30    1   18    6    7   43   14   11    3    9   49    2   50   31    0
Route 3:           0   40   25   21   23    8   35   38    4   48   26   13   41   10   19    0
Route 4:           0   44   34   32   20    5   47   17   39   24   22    0
